90 4005
1 2 93
1 3 110
1 4 245
1 5 19
1 6 159
1 7 22
1 8 162
1 9 97
1 10 266
1 11 167
1 12 231
1 13 265
1 14 203
1 15 201
1 16 260
1 17 194
1 18 53
1 19 55
1 20 188
1 21 196
1 22 220
1 23 268
1 24 212
1 25 183
1 26 267
1 27 221
1 28 100
1 29 246
1 30 233
1 31 114
1 32 191
1 33 124
1 34 159
1 35 32
1 36 63
1 37 266
1 38 215
1 39 106
1 40 44
1 41 195
1 42 85
1 43 169
1 44 88
1 45 122
1 46 126
1 47 107
1 48 102
1 49 246
1 50 183
1 51 52
1 52 247
1 53 112
1 54 67
1 55 198
1 56 218
1 57 198
1 58 9
1 59 215
1 60 244
1 61 28
1 62 153
1 63 46
1 64 4
1 65 249
1 66 125
1 67 243
1 68 228
1 69 44
1 70 259
1 71 77
1 72 73
1 73 99
1 74 251
1 75 29
1 76 166
1 77 51
1 78 241
1 79 80
1 80 63
1 81 5
1 82 39
1 83 227
1 84 182
1 85 127
1 86 107
1 87 246
1 88 94
1 89 22
1 90 229
2 3 116
2 4 18
2 5 230
2 6 110
2 7 85
2 8 236
2 9 29
2 10 212
2 11 105
2 12 227
2 13 0
2 14 233
2 15 152
2 16 213
2 17 151
2 18 104
2 19 3
2 20 260
2 21 164
2 22 152
2 23 170
2 24 81
2 25 70
2 26 231
2 27 131
2 28 240
2 29 4
2 30 109
2 31 93
2 32 14
2 33 191
2 34 42
2 35 68
2 36 244
2 37 263
2 38 82
2 39 55
2 40 4
2 41 50
2 42 217
2 43 109
2 44 58
2 45 72
2 46 173
2 47 35
2 48 218
2 49 233
2 50 154
2 51 115
2 52 218
2 53 3
2 54 57
2 55 14
2 56 35
2 57 162
2 58 158
2 59 34
2 60 167
2 61 31
2 62 248
2 63 45
2 64 11
2 65 260
2 66 175
2 67 52
2 68 162
2 69 99
2 70 175
2 71 50
2 72 239
2 73 93
2 74 267
2 75 228
2 76 219
2 77 213
2 78 182
2 79 18
2 80 63
2 81 74
2 82 259
2 83 78
2 84 9
2 85 81
2 86 87
2 87 125
2 88 173
2 89 139
2 90 56
3 4 175
3 5 88
3 6 162
3 7 124
3 8 128
3 9 22
3 10 135
3 11 47
3 12 56
3 13 21
3 14 149
3 15 123
3 16 20
3 17 33
3 18 207
3 19 9
3 20 178
3 21 172
3 22 33
3 23 34
3 24 148
3 25 159
3 26 32
3 27 253
3 28 22
3 29 119
3 30 92
3 31 225
3 32 147
3 33 115
3 34 165
3 35 29
3 36 14
3 37 265
3 38 131
3 39 212
3 40 209
3 41 198
3 42 206
3 43 194
3 44 97
3 45 9
3 46 125
3 47 57
3 48 166
3 49 46
3 50 240
3 51 90
3 52 43
3 53 47
3 54 224
3 55 68
3 56 241
3 57 236
3 58 235
3 59 160
3 60 242
3 61 177
3 62 95
3 63 159
3 64 0
3 65 200
3 66 259
3 67 170
3 68 53
3 69 109
3 70 146
3 71 20
3 72 247
3 73 255
3 74 222
3 75 179
3 76 192
3 77 143
3 78 257
3 79 44
3 80 55
3 81 23
3 82 172
3 83 91
3 84 212
3 85 181
3 86 264
3 87 81
3 88 13
3 89 48
3 90 28
4 5 200
4 6 196
4 7 128
4 8 13
4 9 139
4 10 118
4 11 210
4 12 8
4 13 118
4 14 81
4 15 130
4 16 237
4 17 141
4 18 68
4 19 131
4 20 190
4 21 89
4 22 36
4 23 115
4 24 56
4 25 126
4 26 30
4 27 145
4 28 32
4 29 102
4 30 123
4 31 84
4 32 188
4 33 135
4 34 6
4 35 177
4 36 135
4 37 149
4 38 216
4 39 112
4 40 103
4 41 21
4 42 172
4 43 128
4 44 42
4 45 125
4 46 63
4 47 251
4 48 149
4 49 111
4 50 33
4 51 144
4 52 223
4 53 2
4 54 248
4 55 2
4 56 194
4 57 189
4 58 244
4 59 1
4 60 17
4 61 250
4 62 216
4 63 184
4 64 221
4 65 155
4 66 237
4 67 5
4 68 222
4 69 246
4 70 139
4 71 171
4 72 143
4 73 193
4 74 218
4 75 254
4 76 15
4 77 224
4 78 86
4 79 237
4 80 56
4 81 43
4 82 220
4 83 246
4 84 101
4 85 224
4 86 120
4 87 33
4 88 253
4 89 147
4 90 227
5 6 199
5 7 113
5 8 179
5 9 187
5 10 25
5 11 176
5 12 0
5 13 33
5 14 121
5 15 127
5 16 237
5 17 234
5 18 267
5 19 136
5 20 12
5 21 135
5 22 3
5 23 63
5 24 209
5 25 195
5 26 31
5 27 207
5 28 185
5 29 92
5 30 134
5 31 230
5 32 235
5 33 136
5 34 138
5 35 50
5 36 140
5 37 92
5 38 48
5 39 28
5 40 96
5 41 221
5 42 69
5 43 39
5 44 82
5 45 173
5 46 258
5 47 47
5 48 37
5 49 108
5 50 268
5 51 146
5 52 186
5 53 233
5 54 43
5 55 251
5 56 199
5 57 217
5 58 79
5 59 177
5 60 176
5 61 154
5 62 180
5 63 7
5 64 10
5 65 151
5 66 180
5 67 7
5 68 223
5 69 177
5 70 217
5 71 59
5 72 97
5 73 159
5 74 217
5 75 108
5 76 142
5 77 205
5 78 15
5 79 211
5 80 25
5 81 227
5 82 222
5 83 59
5 84 17
5 85 103
5 86 99
5 87 67
5 88 142
5 89 197
5 90 40
6 7 185
6 8 178
6 9 87
6 10 177
6 11 71
6 12 249
6 13 17
6 14 27
6 15 248
6 16 214
6 17 246
6 18 173
6 19 35
6 20 65
6 21 222
6 22 166
6 23 104
6 24 72
6 25 197
6 26 67
6 27 116
6 28 123
6 29 226
6 30 150
6 31 43
6 32 87
6 33 22
6 34 99
6 35 137
6 36 220
6 37 139
6 38 137
6 39 221
6 40 56
6 41 179
6 42 217
6 43 118
6 44 213
6 45 191
6 46 259
6 47 55
6 48 265
6 49 21
6 50 81
6 51 202
6 52 107
6 53 164
6 54 92
6 55 216
6 56 142
6 57 14
6 58 95
6 59 24
6 60 37
6 61 95
6 62 29
6 63 51
6 64 219
6 65 10
6 66 243
6 67 77
6 68 256
6 69 83
6 70 179
6 71 138
6 72 269
6 73 56
6 74 40
6 75 176
6 76 108
6 77 15
6 78 6
6 79 41
6 80 48
6 81 49
6 82 104
6 83 1
6 84 106
6 85 220
6 86 109
6 87 54
6 88 35
6 89 79
6 90 268
7 8 116
7 9 156
7 10 40
7 11 47
7 12 182
7 13 203
7 14 79
7 15 84
7 16 21
7 17 127
7 18 137
7 19 86
7 20 85
7 21 180
7 22 161
7 23 233
7 24 93
7 25 194
7 26 59
7 27 230
7 28 257
7 29 111
7 30 154
7 31 176
7 32 54
7 33 242
7 34 128
7 35 35
7 36 191
7 37 124
7 38 254
7 39 266
7 40 8
7 41 241
7 42 109
7 43 128
7 44 258
7 45 101
7 46 240
7 47 126
7 48 50
7 49 260
7 50 161
7 51 32
7 52 36
7 53 7
7 54 97
7 55 111
7 56 19
7 57 176
7 58 103
7 59 9
7 60 117
7 61 232
7 62 94
7 63 170
7 64 56
7 65 138
7 66 250
7 67 212
7 68 194
7 69 22
7 70 126
7 71 163
7 72 109
7 73 242
7 74 155
7 75 262
7 76 4
7 77 209
7 78 79
7 79 147
7 80 62
7 81 206
7 82 13
7 83 267
7 84 67
7 85 218
7 86 85
7 87 18
7 88 18
7 89 88
7 90 27
8 9 133
8 10 238
8 11 265
8 12 185
8 13 169
8 14 80
8 15 244
8 16 244
8 17 101
8 18 212
8 19 24
8 20 109
8 21 98
8 22 264
8 23 97
8 24 61
8 25 84
8 26 129
8 27 45
8 28 125
8 29 55
8 30 224
8 31 89
8 32 45
8 33 76
8 34 200
8 35 191
8 36 226
8 37 74
8 38 28
8 39 267
8 40 113
8 41 128
8 42 220
8 43 134
8 44 135
8 45 24
8 46 245
8 47 159
8 48 181
8 49 152
8 50 112
8 51 169
8 52 74
8 53 199
8 54 91
8 55 227
8 56 86
8 57 13
8 58 109
8 59 229
8 60 81
8 61 170
8 62 235
8 63 193
8 64 28
8 65 134
8 66 158
8 67 122
8 68 17
8 69 224
8 70 27
8 71 224
8 72 247
8 73 168
8 74 131
8 75 56
8 76 109
8 77 138
8 78 167
8 79 78
8 80 59
8 81 190
8 82 256
8 83 55
8 84 168
8 85 139
8 86 100
8 87 62
8 88 144
8 89 126
8 90 122
9 10 6
9 11 142
9 12 75
9 13 58
9 14 261
9 15 144
9 16 58
9 17 258
9 18 70
9 19 163
9 20 119
9 21 55
9 22 65
9 23 231
9 24 269
9 25 113
9 26 208
9 27 36
9 28 41
9 29 124
9 30 239
9 31 31
9 32 103
9 33 247
9 34 98
9 35 237
9 36 219
9 37 182
9 38 148
9 39 214
9 40 118
9 41 83
9 42 265
9 43 141
9 44 105
9 45 49
9 46 72
9 47 179
9 48 151
9 49 186
9 50 64
9 51 190
9 52 242
9 53 203
9 54 198
9 55 234
9 56 98
9 57 102
9 58 240
9 59 24
9 60 20
9 61 147
9 62 108
9 63 182
9 64 114
9 65 44
9 66 43
9 67 151
9 68 50
9 69 65
9 70 95
9 71 23
9 72 139
9 73 257
9 74 87
9 75 163
9 76 176
9 77 152
9 78 83
9 79 73
9 80 244
9 81 32
9 82 42
9 83 177
9 84 176
9 85 142
9 86 136
9 87 28
9 88 173
9 89 35
9 90 49
10 11 234
10 12 112
10 13 243
10 14 191
10 15 264
10 16 177
10 17 254
10 18 255
10 19 83
10 20 218
10 21 81
10 22 237
10 23 70
10 24 267
10 25 217
10 26 103
10 27 63
10 28 76
10 29 255
10 30 64
10 31 5
10 32 131
10 33 75
10 34 5
10 35 34
10 36 34
10 37 267
10 38 240
10 39 55
10 40 194
10 41 74
10 42 15
10 43 20
10 44 269
10 45 74
10 46 154
10 47 89
10 48 180
10 49 72
10 50 182
10 51 145
10 52 16
10 53 195
10 54 38
10 55 159
10 56 264
10 57 199
10 58 222
10 59 65
10 60 147
10 61 245
10 62 248
10 63 144
10 64 31
10 65 196
10 66 139
10 67 219
10 68 46
10 69 169
10 70 132
10 71 181
10 72 91
10 73 248
10 74 144
10 75 8
10 76 72
10 77 261
10 78 172
10 79 108
10 80 185
10 81 150
10 82 268
10 83 143
10 84 56
10 85 201
10 86 68
10 87 83
10 88 224
10 89 193
10 90 158
11 12 220
11 13 190
11 14 224
11 15 141
11 16 59
11 17 8
11 18 210
11 19 138
11 20 61
11 21 177
11 22 159
11 23 219
11 24 56
11 25 152
11 26 223
11 27 63
11 28 243
11 29 203
11 30 86
11 31 231
11 32 162
11 33 170
11 34 177
11 35 265
11 36 122
11 37 104
11 38 130
11 39 169
11 40 197
11 41 251
11 42 223
11 43 88
11 44 221
11 45 110
11 46 179
11 47 19
11 48 245
11 49 128
11 50 129
11 51 90
11 52 71
11 53 119
11 54 40
11 55 250
11 56 70
11 57 40
11 58 85
11 59 92
11 60 36
11 61 170
11 62 2
11 63 227
11 64 46
11 65 72
11 66 181
11 67 50
11 68 118
11 69 63
11 70 167
11 71 233
11 72 31
11 73 141
11 74 155
11 75 94
11 76 165
11 77 264
11 78 147
11 79 242
11 80 57
11 81 264
11 82 73
11 83 119
11 84 1
11 85 207
11 86 158
11 87 185
11 88 266
11 89 12
11 90 100
12 13 45
12 14 165
12 15 152
12 16 224
12 17 168
12 18 2
12 19 182
12 20 23
12 21 44
12 22 14
12 23 62
12 24 202
12 25 97
12 26 58
12 27 232
12 28 134
12 29 49
12 30 154
12 31 14
12 32 209
12 33 95
12 34 164
12 35 181
12 36 84
12 37 114
12 38 269
12 39 232
12 40 250
12 41 215
12 42 65
12 43 251
12 44 51
12 45 71
12 46 73
12 47 19
12 48 16
12 49 70
12 50 162
12 51 164
12 52 21
12 53 156
12 54 88
12 55 226
12 56 9
12 57 203
12 58 226
12 59 231
12 60 205
12 61 129
12 62 132
12 63 223
12 64 46
12 65 238
12 66 4
12 67 38
12 68 58
12 69 63
12 70 222
12 71 164
12 72 108
12 73 3
12 74 58
12 75 97
12 76 140
12 77 27
12 78 15
12 79 7
12 80 240
12 81 224
12 82 239
12 83 162
12 84 50
12 85 6
12 86 187
12 87 145
12 88 90
12 89 53
12 90 267
13 14 79
13 15 192
13 16 167
13 17 140
13 18 162
13 19 72
13 20 205
13 21 225
13 22 50
13 23 153
13 24 77
13 25 227
13 26 4
13 27 138
13 28 266
13 29 239
13 30 61
13 31 163
13 32 159
13 33 71
13 34 117
13 35 219
13 36 103
13 37 142
13 38 245
13 39 30
13 40 57
13 41 2
13 42 175
13 43 222
13 44 135
13 45 111
13 46 48
13 47 197
13 48 134
13 49 170
13 50 5
13 51 136
13 52 142
13 53 18
13 54 104
13 55 78
13 56 173
13 57 66
13 58 2
13 59 34
13 60 102
13 61 6
13 62 263
13 63 107
13 64 95
13 65 254
13 66 150
13 67 8
13 68 6
13 69 155
13 70 233
13 71 107
13 72 18
13 73 45
13 74 190
13 75 156
13 76 183
13 77 10
13 78 269
13 79 132
13 80 181
13 81 51
13 82 86
13 83 164
13 84 8
13 85 165
13 86 169
13 87 238
13 88 55
13 89 103
13 90 26
14 15 74
14 16 234
14 17 128
14 18 30
14 19 1
14 20 174
14 21 93
14 22 241
14 23 149
14 24 137
14 25 256
14 26 142
14 27 248
14 28 237
14 29 84
14 30 76
14 31 22
14 32 117
14 33 20
14 34 138
14 35 56
14 36 69
14 37 0
14 38 152
14 39 209
14 40 166
14 41 71
14 42 133
14 43 213
14 44 131
14 45 23
14 46 254
14 47 213
14 48 261
14 49 31
14 50 210
14 51 60
14 52 143
14 53 77
14 54 268
14 55 134
14 56 82
14 57 14
14 58 265
14 59 237
14 60 23
14 61 132
14 62 27
14 63 86
14 64 136
14 65 105
14 66 22
14 67 75
14 68 146
14 69 33
14 70 22
14 71 189
14 72 193
14 73 30
14 74 100
14 75 76
14 76 76
14 77 70
14 78 179
14 79 252
14 80 24
14 81 196
14 82 161
14 83 3
14 84 258
14 85 76
14 86 198
14 87 266
14 88 152
14 89 245
14 90 236
15 16 236
15 17 151
15 18 115
15 19 186
15 20 158
15 21 26
15 22 66
15 23 215
15 24 80
15 25 201
15 26 217
15 27 119
15 28 85
15 29 35
15 30 218
15 31 28
15 32 66
15 33 186
15 34 26
15 35 20
15 36 145
15 37 185
15 38 49
15 39 157
15 40 24
15 41 193
15 42 194
15 43 119
15 44 247
15 45 157
15 46 231
15 47 225
15 48 201
15 49 3
15 50 180
15 51 75
15 52 253
15 53 89
15 54 266
15 55 95
15 56 0
15 57 109
15 58 255
15 59 237
15 60 8
15 61 8
15 62 21
15 63 159
15 64 177
15 65 255
15 66 22
15 67 5
15 68 41
15 69 189
15 70 12
15 71 154
15 72 236
15 73 62
15 74 150
15 75 261
15 76 56
15 77 156
15 78 96
15 79 107
15 80 226
15 81 234
15 82 0
15 83 267
15 84 104
15 85 39
15 86 68
15 87 52
15 88 222
15 89 153
15 90 234
16 17 98
16 18 46
16 19 71
16 20 177
16 21 197
16 22 254
16 23 240
16 24 145
16 25 16
16 26 75
16 27 97
16 28 47
16 29 15
16 30 191
16 31 176
16 32 120
16 33 5
16 34 9
16 35 173
16 36 132
16 37 165
16 38 167
16 39 147
16 40 113
16 41 209
16 42 257
16 43 27
16 44 255
16 45 119
16 46 16
16 47 130
16 48 23
16 49 20
16 50 99
16 51 93
16 52 203
16 53 265
16 54 51
16 55 257
16 56 113
16 57 268
16 58 266
16 59 84
16 60 55
16 61 85
16 62 47
16 63 124
16 64 263
16 65 69
16 66 178
16 67 112
16 68 224
16 69 242
16 70 236
16 71 151
16 72 210
16 73 239
16 74 204
16 75 0
16 76 80
16 77 10
16 78 170
16 79 253
16 80 39
16 81 192
16 82 134
16 83 91
16 84 61
16 85 176
16 86 118
16 87 102
16 88 16
16 89 102
16 90 258
17 18 171
17 19 50
17 20 194
17 21 119
17 22 83
17 23 105
17 24 228
17 25 29
17 26 213
17 27 56
17 28 127
17 29 208
17 30 122
17 31 141
17 32 45
17 33 244
17 34 32
17 35 51
17 36 11
17 37 173
17 38 259
17 39 205
17 40 247
17 41 168
17 42 197
17 43 148
17 44 70
17 45 215
17 46 72
17 47 175
17 48 246
17 49 260
17 50 260
17 51 204
17 52 223
17 53 210
17 54 218
17 55 103
17 56 227
17 57 236
17 58 36
17 59 230
17 60 222
17 61 14
17 62 244
17 63 159
17 64 245
17 65 186
17 66 7
17 67 116
17 68 41
17 69 6
17 70 65
17 71 69
17 72 5
17 73 196
17 74 83
17 75 20
17 76 56
17 77 181
17 78 118
17 79 116
17 80 175
17 81 93
17 82 201
17 83 17
17 84 178
17 85 77
17 86 143
17 87 6
17 88 268
17 89 105
17 90 121
18 19 122
18 20 245
18 21 137
18 22 4
18 23 104
18 24 209
18 25 218
18 26 258
18 27 241
18 28 174
18 29 194
18 30 128
18 31 4
18 32 172
18 33 77
18 34 57
18 35 128
18 36 203
18 37 236
18 38 159
18 39 144
18 40 108
18 41 254
18 42 186
18 43 18
18 44 97
18 45 30
18 46 99
18 47 143
18 48 139
18 49 92
18 50 51
18 51 171
18 52 103
18 53 7
18 54 220
18 55 201
18 56 13
18 57 228
18 58 69
18 59 134
18 60 59
18 61 6
18 62 21
18 63 188
18 64 208
18 65 190
18 66 164
18 67 166
18 68 133
18 69 141
18 70 143
18 71 245
18 72 209
18 73 225
18 74 29
18 75 231
18 76 187
18 77 186
18 78 149
18 79 5
18 80 234
18 81 37
18 82 174
18 83 230
18 84 149
18 85 124
18 86 115
18 87 175
18 88 212
18 89 193
18 90 236
19 20 211
19 21 240
19 22 41
19 23 98
19 24 219
19 25 62
19 26 123
19 27 214
19 28 35
19 29 164
19 30 43
19 31 87
19 32 1
19 33 26
19 34 193
19 35 188
19 36 28
19 37 215
19 38 221
19 39 205
19 40 262
19 41 94
19 42 16
19 43 70
19 44 11
19 45 3
19 46 47
19 47 16
19 48 122
19 49 250
19 50 237
19 51 46
19 52 9
19 53 70
19 54 99
19 55 76
19 56 10
19 57 23
19 58 19
19 59 224
19 60 232
19 61 226
19 62 238
19 63 74
19 64 128
19 65 222
19 66 249
19 67 124
19 68 141
19 69 43
19 70 220
19 71 217
19 72 249
19 73 88
19 74 201
19 75 8
19 76 141
19 77 196
19 78 158
19 79 145
19 80 21
19 81 55
19 82 201
19 83 23
19 84 128
19 85 234
19 86 95
19 87 207
19 88 155
19 89 29
19 90 132
20 21 93
20 22 205
20 23 48
20 24 104
20 25 35
20 26 176
20 27 234
20 28 21
20 29 176
20 30 126
20 31 148
20 32 141
20 33 37
20 34 217
20 35 194
20 36 163
20 37 102
20 38 170
20 39 51
20 40 62
20 41 60
20 42 159
20 43 60
20 44 195
20 45 160
20 46 70
20 47 249
20 48 252
20 49 253
20 50 18
20 51 208
20 52 188
20 53 249
20 54 70
20 55 245
20 56 176
20 57 126
20 58 159
20 59 24
20 60 160
20 61 214
20 62 261
20 63 81
20 64 193
20 65 191
20 66 98
20 67 100
20 68 156
20 69 2
20 70 67
20 71 207
20 72 41
20 73 179
20 74 182
20 75 34
20 76 151
20 77 150
20 78 232
20 79 138
20 80 22
20 81 164
20 82 60
20 83 135
20 84 23
20 85 131
20 86 186
20 87 154
20 88 64
20 89 205
20 90 8
21 22 143
21 23 222
21 24 252
21 25 203
21 26 42
21 27 71
21 28 194
21 29 207
21 30 4
21 31 118
21 32 94
21 33 36
21 34 253
21 35 256
21 36 259
21 37 111
21 38 44
21 39 225
21 40 30
21 41 140
21 42 226
21 43 78
21 44 79
21 45 150
21 46 208
21 47 106
21 48 82
21 49 62
21 50 164
21 51 236
21 52 8
21 53 29
21 54 13
21 55 177
21 56 106
21 57 261
21 58 207
21 59 56
21 60 238
21 61 268
21 62 129
21 63 127
21 64 2
21 65 107
21 66 89
21 67 241
21 68 225
21 69 32
21 70 243
21 71 70
21 72 1
21 73 52
21 74 55
21 75 135
21 76 128
21 77 106
21 78 28
21 79 237
21 80 206
21 81 199
21 82 2
21 83 39
21 84 165
21 85 23
21 86 3
21 87 14
21 88 0
21 89 261
21 90 219
22 23 192
22 24 203
22 25 109
22 26 153
22 27 262
22 28 61
22 29 246
22 30 204
22 31 251
22 32 117
22 33 182
22 34 187
22 35 186
22 36 218
22 37 254
22 38 169
22 39 113
22 40 107
22 41 40
22 42 170
22 43 5
22 44 227
22 45 161
22 46 243
22 47 127
22 48 193
22 49 244
22 50 58
22 51 267
22 52 91
22 53 200
22 54 137
22 55 144
22 56 200
22 57 48
22 58 264
22 59 58
22 60 92
22 61 83
22 62 26
22 63 195
22 64 217
22 65 184
22 66 13
22 67 3
22 68 180
22 69 93
22 70 224
22 71 178
22 72 175
22 73 250
22 74 106
22 75 218
22 76 261
22 77 207
22 78 87
22 79 17
22 80 214
22 81 260
22 82 9
22 83 216
22 84 260
22 85 141
22 86 268
22 87 122
22 88 223
22 89 169
22 90 172
23 24 136
23 25 19
23 26 80
23 27 189
23 28 101
23 29 223
23 30 233
23 31 260
23 32 17
23 33 119
23 34 127
23 35 10
23 36 181
23 37 60
23 38 83
23 39 243
23 40 97
23 41 64
23 42 257
23 43 41
23 44 194
23 45 239
23 46 124
23 47 123
23 48 80
23 49 169
23 50 269
23 51 64
23 52 199
23 53 79
23 54 153
23 55 108
23 56 129
23 57 33
23 58 122
23 59 0
23 60 27
23 61 80
23 62 55
23 63 23
23 64 154
23 65 38
23 66 30
23 67 28
23 68 127
23 69 98
23 70 29
23 71 55
23 72 223
23 73 215
23 74 77
23 75 163
23 76 151
23 77 157
23 78 255
23 79 191
23 80 72
23 81 194
23 82 22
23 83 163
23 84 157
23 85 96
23 86 189
23 87 123
23 88 130
23 89 43
23 90 199
24 25 251
24 26 110
24 27 259
24 28 146
24 29 185
24 30 178
24 31 125
24 32 113
24 33 83
24 34 232
24 35 73
24 36 269
24 37 193
24 38 242
24 39 38
24 40 94
24 41 206
24 42 258
24 43 226
24 44 220
24 45 202
24 46 90
24 47 231
24 48 252
24 49 29
24 50 140
24 51 68
24 52 11
24 53 211
24 54 212
24 55 139
24 56 255
24 57 196
24 58 126
24 59 116
24 60 48
24 61 71
24 62 16
24 63 66
24 64 7
24 65 74
24 66 4
24 67 82
24 68 199
24 69 69
24 70 210
24 71 156
24 72 155
24 73 21
24 74 236
24 75 22
24 76 120
24 77 253
24 78 153
24 79 125
24 80 152
24 81 113
24 82 163
24 83 186
24 84 204
24 85 184
24 86 33
24 87 71
24 88 203
24 89 184
24 90 179
25 26 143
25 27 3
25 28 22
25 29 99
25 30 140
25 31 163
25 32 62
25 33 199
25 34 248
25 35 223
25 36 182
25 37 189
25 38 21
25 39 217
25 40 216
25 41 256
25 42 223
25 43 41
25 44 23
25 45 103
25 46 24
25 47 55
25 48 204
25 49 218
25 50 207
25 51 200
25 52 131
25 53 225
25 54 14
25 55 69
25 56 237
25 57 193
25 58 195
25 59 126
25 60 183
25 61 113
25 62 245
25 63 53
25 64 74
25 65 197
25 66 152
25 67 260
25 68 199
25 69 219
25 70 25
25 71 94
25 72 251
25 73 88
25 74 206
25 75 234
25 76 26
25 77 212
25 78 36
25 79 152
25 80 249
25 81 129
25 82 170
25 83 117
25 84 48
25 85 142
25 86 27
25 87 7
25 88 90
25 89 194
25 90 37
26 27 91
26 28 73
26 29 225
26 30 143
26 31 220
26 32 263
26 33 198
26 34 264
26 35 37
26 36 257
26 37 197
26 38 32
26 39 238
26 40 109
26 41 75
26 42 80
26 43 61
26 44 211
26 45 96
26 46 175
26 47 256
26 48 244
26 49 178
26 50 83
26 51 68
26 52 66
26 53 220
26 54 119
26 55 213
26 56 173
26 57 225
26 58 193
26 59 259
26 60 85
26 61 49
26 62 17
26 63 80
26 64 148
26 65 214
26 66 48
26 67 177
26 68 111
26 69 256
26 70 238
26 71 174
26 72 169
26 73 248
26 74 248
26 75 79
26 76 117
26 77 259
26 78 76
26 79 1
26 80 67
26 81 218
26 82 147
26 83 184
26 84 95
26 85 191
26 86 70
26 87 142
26 88 10
26 89 82
26 90 188
27 28 229
27 29 64
27 30 180
27 31 57
27 32 235
27 33 109
27 34 76
27 35 121
27 36 229
27 37 158
27 38 181
27 39 5
27 40 61
27 41 245
27 42 81
27 43 17
27 44 169
27 45 128
27 46 269
27 47 251
27 48 70
27 49 154
27 50 61
27 51 262
27 52 152
27 53 206
27 54 129
27 55 184
27 56 88
27 57 14
27 58 65
27 59 161
27 60 251
27 61 19
27 62 199
27 63 134
27 64 232
27 65 2
27 66 213
27 67 127
27 68 108
27 69 108
27 70 186
27 71 251
27 72 219
27 73 209
27 74 82
27 75 87
27 76 136
27 77 264
27 78 209
27 79 69
27 80 60
27 81 7
27 82 238
27 83 231
27 84 192
27 85 201
27 86 257
27 87 117
27 88 84
27 89 189
27 90 268
28 29 185
28 30 159
28 31 41
28 32 247
28 33 187
28 34 135
28 35 183
28 36 58
28 37 32
28 38 247
28 39 264
28 40 172
28 41 91
28 42 14
28 43 97
28 44 109
28 45 254
28 46 173
28 47 8
28 48 158
28 49 76
28 50 2
28 51 247
28 52 134
28 53 191
28 54 216
28 55 260
28 56 159
28 57 117
28 58 120
28 59 107
28 60 70
28 61 3
28 62 0
28 63 204
28 64 175
28 65 158
28 66 91
28 67 139
28 68 227
28 69 185
28 70 157
28 71 29
28 72 0
28 73 150
28 74 53
28 75 48
28 76 162
28 77 82
28 78 155
28 79 8
28 80 178
28 81 173
28 82 71
28 83 109
28 84 215
28 85 73
28 86 141
28 87 88
28 88 190
28 89 216
28 90 48
29 30 200
29 31 44
29 32 208
29 33 143
29 34 20
29 35 21
29 36 231
29 37 127
29 38 56
29 39 5
29 40 44
29 41 40
29 42 230
29 43 215
29 44 52
29 45 253
29 46 76
29 47 46
29 48 24
29 49 229
29 50 223
29 51 31
29 52 92
29 53 76
29 54 102
29 55 112
29 56 122
29 57 55
29 58 128
29 59 190
29 60 104
29 61 191
29 62 142
29 63 34
29 64 89
29 65 46
29 66 97
29 67 26
29 68 235
29 69 122
29 70 56
29 71 146
29 72 67
29 73 101
29 74 154
29 75 250
29 76 42
29 77 139
29 78 156
29 79 152
29 80 220
29 81 157
29 82 109
29 83 248
29 84 183
29 85 50
29 86 7
29 87 36
29 88 187
29 89 153
29 90 228
30 31 201
30 32 262
30 33 224
30 34 154
30 35 151
30 36 80
30 37 123
30 38 224
30 39 47
30 40 215
30 41 259
30 42 84
30 43 47
30 44 106
30 45 201
30 46 64
30 47 231
30 48 252
30 49 251
30 50 6
30 51 96
30 52 128
30 53 102
30 54 73
30 55 34
30 56 16
30 57 260
30 58 15
30 59 188
30 60 114
30 61 177
30 62 197
30 63 55
30 64 110
30 65 101
30 66 24
30 67 215
30 68 245
30 69 161
30 70 80
30 71 267
30 72 63
30 73 6
30 74 193
30 75 78
30 76 220
30 77 7
30 78 118
30 79 60
30 80 76
30 81 157
30 82 138
30 83 107
30 84 215
30 85 230
30 86 102
30 87 2
30 88 53
30 89 52
30 90 7
31 32 65
31 33 221
31 34 10
31 35 108
31 36 65
31 37 57
31 38 93
31 39 16
31 40 119
31 41 233
31 42 59
31 43 213
31 44 233
31 45 208
31 46 1
31 47 250
31 48 121
31 49 160
31 50 30
31 51 181
31 52 217
31 53 42
31 54 37
31 55 90
31 56 179
31 57 20
31 58 87
31 59 136
31 60 45
31 61 148
31 62 16
31 63 189
31 64 195
31 65 262
31 66 104
31 67 265
31 68 75
31 69 32
31 70 254
31 71 149
31 72 173
31 73 33
31 74 75
31 75 118
31 76 143
31 77 105
31 78 45
31 79 215
31 80 158
31 81 16
31 82 107
31 83 140
31 84 115
31 85 14
31 86 22
31 87 41
31 88 153
31 89 62
31 90 65
32 33 1
32 34 207
32 35 183
32 36 160
32 37 136
32 38 120
32 39 156
32 40 26
32 41 72
32 42 159
32 43 244
32 44 250
32 45 68
32 46 251
32 47 69
32 48 247
32 49 243
32 50 41
32 51 222
32 52 158
32 53 41
32 54 201
32 55 170
32 56 71
32 57 245
32 58 9
32 59 235
32 60 132
32 61 96
32 62 14
32 63 164
32 64 183
32 65 84
32 66 262
32 67 35
32 68 57
32 69 146
32 70 208
32 71 28
32 72 230
32 73 70
32 74 114
32 75 262
32 76 70
32 77 174
32 78 74
32 79 24
32 80 223
32 81 74
32 82 248
32 83 180
32 84 102
32 85 123
32 86 38
32 87 62
32 88 173
32 89 181
32 90 230
33 34 112
33 35 15
33 36 167
33 37 230
33 38 4
33 39 260
33 40 21
33 41 109
33 42 169
33 43 261
33 44 77
33 45 212
33 46 266
33 47 26
33 48 257
33 49 225
33 50 182
33 51 63
33 52 242
33 53 107
33 54 13
33 55 125
33 56 255
33 57 202
33 58 43
33 59 149
33 60 121
33 61 134
33 62 196
33 63 22
33 64 79
33 65 191
33 66 252
33 67 37
33 68 168
33 69 9
33 70 203
33 71 229
33 72 44
33 73 241
33 74 55
33 75 266
33 76 63
33 77 107
33 78 178
33 79 73
33 80 259
33 81 213
33 82 114
33 83 13
33 84 6
33 85 204
33 86 39
33 87 44
33 88 30
33 89 19
33 90 245
34 35 170
34 36 111
34 37 244
34 38 152
34 39 261
34 40 52
34 41 209
34 42 91
34 43 48
34 44 176
34 45 12
34 46 24
34 47 72
34 48 100
34 49 193
34 50 81
34 51 74
34 52 209
34 53 71
34 54 227
34 55 110
34 56 201
34 57 214
34 58 170
34 59 89
34 60 87
34 61 189
34 62 175
34 63 205
34 64 4
34 65 160
34 66 159
34 67 6
34 68 194
34 69 27
34 70 70
34 71 269
34 72 256
34 73 218
34 74 145
34 75 133
34 76 216
34 77 239
34 78 101
34 79 188
34 80 211
34 81 257
34 82 142
34 83 195
34 84 238
34 85 83
34 86 53
34 87 116
34 88 224
34 89 100
34 90 101
35 36 9
35 37 254
35 38 56
35 39 91
35 40 219
35 41 115
35 42 51
35 43 59
35 44 91
35 45 266
35 46 156
35 47 7
35 48 125
35 49 9
35 50 235
35 51 249
35 52 143
35 53 90
35 54 241
35 55 237
35 56 159
35 57 19
35 58 118
35 59 85
35 60 227
35 61 5
35 62 122
35 63 41
35 64 29
35 65 77
35 66 202
35 67 227
35 68 109
35 69 13
35 70 269
35 71 128
35 72 114
35 73 243
35 74 14
35 75 171
35 76 180
35 77 181
35 78 215
35 79 178
35 80 166
35 81 258
35 82 128
35 83 218
35 84 59
35 85 231
35 86 71
35 87 264
35 88 222
35 89 122
35 90 24
36 37 28
36 38 240
36 39 69
36 40 126
36 41 138
36 42 108
36 43 184
36 44 251
36 45 180
36 46 42
36 47 78
36 48 36
36 49 250
36 50 223
36 51 215
36 52 191
36 53 189
36 54 142
36 55 174
36 56 17
36 57 255
36 58 103
36 59 141
36 60 215
36 61 60
36 62 8
36 63 144
36 64 226
36 65 52
36 66 34
36 67 195
36 68 265
36 69 215
36 70 57
36 71 156
36 72 81
36 73 233
36 74 6
36 75 130
36 76 254
36 77 242
36 78 77
36 79 136
36 80 154
36 81 179
36 82 0
36 83 59
36 84 143
36 85 50
36 86 269
36 87 181
36 88 226
36 89 73
36 90 160
37 38 53
37 39 218
37 40 156
37 41 209
37 42 147
37 43 202
37 44 265
37 45 166
37 46 61
37 47 190
37 48 89
37 49 142
37 50 149
37 51 269
37 52 199
37 53 145
37 54 21
37 55 47
37 56 198
37 57 81
37 58 204
37 59 161
37 60 33
37 61 252
37 62 132
37 63 153
37 64 125
37 65 194
37 66 220
37 67 225
37 68 176
37 69 94
37 70 25
37 71 256
37 72 267
37 73 108
37 74 16
37 75 69
37 76 98
37 77 107
37 78 231
37 79 123
37 80 199
37 81 220
37 82 254
37 83 99
37 84 269
37 85 208
37 86 83
37 87 119
37 88 109
37 89 0
37 90 110
38 39 85
38 40 245
38 41 43
38 42 134
38 43 252
38 44 255
38 45 11
38 46 241
38 47 171
38 48 26
38 49 165
38 50 92
38 51 68
38 52 97
38 53 116
38 54 86
38 55 196
38 56 241
38 57 233
38 58 181
38 59 201
38 60 254
38 61 51
38 62 24
38 63 42
38 64 232
38 65 211
38 66 118
38 67 46
38 68 215
38 69 37
38 70 39
38 71 120
38 72 150
38 73 165
38 74 80
38 75 86
38 76 78
38 77 144
38 78 52
38 79 173
38 80 2
38 81 145
38 82 61
38 83 63
38 84 254
38 85 80
38 86 258
38 87 227
38 88 63
38 89 134
38 90 251
39 40 253
39 41 180
39 42 222
39 43 212
39 44 33
39 45 26
39 46 28
39 47 224
39 48 203
39 49 230
39 50 257
39 51 37
39 52 70
39 53 254
39 54 213
39 55 92
39 56 126
39 57 164
39 58 127
39 59 208
39 60 73
39 61 188
39 62 221
39 63 65
39 64 51
39 65 202
39 66 86
39 67 205
39 68 203
39 69 222
39 70 5
39 71 125
39 72 155
39 73 266
39 74 186
39 75 109
39 76 195
39 77 214
39 78 129
39 79 104
39 80 253
39 81 219
39 82 232
39 83 139
39 84 152
39 85 207
39 86 143
39 87 8
39 88 8
39 89 29
39 90 121
40 41 83
40 42 203
40 43 229
40 44 196
40 45 248
40 46 52
40 47 48
40 48 211
40 49 199
40 50 134
40 51 214
40 52 257
40 53 101
40 54 154
40 55 173
40 56 51
40 57 198
40 58 230
40 59 120
40 60 211
40 61 34
40 62 204
40 63 141
40 64 216
40 65 185
40 66 90
40 67 217
40 68 113
40 69 100
40 70 124
40 71 264
40 72 207
40 73 22
40 74 239
40 75 155
40 76 234
40 77 212
40 78 26
40 79 250
40 80 265
40 81 86
40 82 40
40 83 246
40 84 193
40 85 7
40 86 110
40 87 90
40 88 226
40 89 88
40 90 128
41 42 50
41 43 164
41 44 145
41 45 80
41 46 143
41 47 70
41 48 25
41 49 228
41 50 133
41 51 136
41 52 70
41 53 72
41 54 78
41 55 78
41 56 249
41 57 74
41 58 181
41 59 143
41 60 129
41 61 137
41 62 127
41 63 130
41 64 3
41 65 210
41 66 84
41 67 29
41 68 144
41 69 84
41 70 236
41 71 174
41 72 88
41 73 69
41 74 158
41 75 107
41 76 161
41 77 213
41 78 97
41 79 25
41 80 163
41 81 59
41 82 59
41 83 119
41 84 222
41 85 45
41 86 136
41 87 139
41 88 215
41 89 183
41 90 108
42 43 89
42 44 174
42 45 53
42 46 169
42 47 22
42 48 206
42 49 7
42 50 210
42 51 248
42 52 240
42 53 226
42 54 104
42 55 39
42 56 141
42 57 31
42 58 28
42 59 82
42 60 11
42 61 157
42 62 49
42 63 255
42 64 64
42 65 116
42 66 121
42 67 134
42 68 26
42 69 256
42 70 247
42 71 187
42 72 171
42 73 227
42 74 45
42 75 116
42 76 27
42 77 7
42 78 132
42 79 45
42 80 196
42 81 208
42 82 192
42 83 10
42 84 143
42 85 202
42 86 47
42 87 154
42 88 18
42 89 166
42 90 183
43 44 243
43 45 151
43 46 76
43 47 23
43 48 57
43 49 195
43 50 87
43 51 79
43 52 190
43 53 32
43 54 116
43 55 98
43 56 61
43 57 40
43 58 23
43 59 100
43 60 236
43 61 3
43 62 260
43 63 94
43 64 105
43 65 150
43 66 69
43 67 58
43 68 257
43 69 232
43 70 166
43 71 26
43 72 259
43 73 236
43 74 49
43 75 1
43 76 32
43 77 136
43 78 63
43 79 239
43 80 73
43 81 45
43 82 178
43 83 34
43 84 132
43 85 85
43 86 75
43 87 224
43 88 212
43 89 112
43 90 174
44 45 195
44 46 185
44 47 184
44 48 135
44 49 42
44 50 48
44 51 175
44 52 160
44 53 209
44 54 250
44 55 29
44 56 205
44 57 203
44 58 22
44 59 214
44 60 148
44 61 215
44 62 14
44 63 196
44 64 221
44 65 7
44 66 155
44 67 98
44 68 18
44 69 110
44 70 90
44 71 1
44 72 94
44 73 231
44 74 237
44 75 51
44 76 48
44 77 132
44 78 11
44 79 56
44 80 217
44 81 67
44 82 41
44 83 227
44 84 199
44 85 32
44 86 142
44 87 113
44 88 189
44 89 18
44 90 215
45 46 208
45 47 143
45 48 255
45 49 218
45 50 216
45 51 195
45 52 7
45 53 7
45 54 131
45 55 43
45 56 223
45 57 255
45 58 134
45 59 94
45 60 62
45 61 98
45 62 44
45 63 35
45 64 259
45 65 157
45 66 80
45 67 155
45 68 34
45 69 19
45 70 60
45 71 123
45 72 118
45 73 264
45 74 182
45 75 169
45 76 125
45 77 138
45 78 260
45 79 210
45 80 168
45 81 130
45 82 213
45 83 73
45 84 91
45 85 55
45 86 60
45 87 34
45 88 160
45 89 96
45 90 191
46 47 167
46 48 85
46 49 54
46 50 91
46 51 252
46 52 141
46 53 29
46 54 114
46 55 269
46 56 222
46 57 209
46 58 207
46 59 261
46 60 123
46 61 40
46 62 149
46 63 191
46 64 95
46 65 15
46 66 101
46 67 54
46 68 194
46 69 160
46 70 106
46 71 100
46 72 0
46 73 145
46 74 131
46 75 37
46 76 88
46 77 221
46 78 149
46 79 176
46 80 191
46 81 46
46 82 128
46 83 214
46 84 11
46 85 76
46 86 206
46 87 193
46 88 161
46 89 42
46 90 186
47 48 38
47 49 214
47 50 118
47 51 64
47 52 12
47 53 138
47 54 233
47 55 60
47 56 209
47 57 123
47 58 247
47 59 46
47 60 36
47 61 243
47 62 233
47 63 57
47 64 245
47 65 244
47 66 144
47 67 71
47 68 239
47 69 116
47 70 246
47 71 223
47 72 124
47 73 171
47 74 226
47 75 93
47 76 184
47 77 197
47 78 9
47 79 82
47 80 148
47 81 235
47 82 18
47 83 33
47 84 167
47 85 265
47 86 103
47 87 175
47 88 25
47 89 144
47 90 39
48 49 51
48 50 29
48 51 131
48 52 97
48 53 240
48 54 142
48 55 247
48 56 78
48 57 183
48 58 34
48 59 246
48 60 212
48 61 49
48 62 97
48 63 238
48 64 101
48 65 197
48 66 207
48 67 98
48 68 153
48 69 256
48 70 109
48 71 258
48 72 8
48 73 210
48 74 225
48 75 244
48 76 174
48 77 91
48 78 231
48 79 182
48 80 101
48 81 3
48 82 41
48 83 216
48 84 254
48 85 177
48 86 99
48 87 71
48 88 111
48 89 233
48 90 52
49 50 8
49 51 1
49 52 84
49 53 11
49 54 226
49 55 221
49 56 144
49 57 136
49 58 53
49 59 187
49 60 79
49 61 173
49 62 52
49 63 48
49 64 233
49 65 225
49 66 237
49 67 46
49 68 259
49 69 126
49 70 116
49 71 166
49 72 247
49 73 55
49 74 91
49 75 269
49 76 9
49 77 187
49 78 86
49 79 156
49 80 79
49 81 100
49 82 130
49 83 17
49 84 150
49 85 49
49 86 206
49 87 158
49 88 118
49 89 47
49 90 36
50 51 152
50 52 171
50 53 178
50 54 12
50 55 31
50 56 75
50 57 85
50 58 23
50 59 71
50 60 263
50 61 251
50 62 172
50 63 108
50 64 261
50 65 191
50 66 123
50 67 180
50 68 128
50 69 198
50 70 137
50 71 79
50 72 43
50 73 101
50 74 92
50 75 193
50 76 103
50 77 226
50 78 20
50 79 135
50 80 69
50 81 222
50 82 245
50 83 32
50 84 252
50 85 208
50 86 101
50 87 264
50 88 266
50 89 163
50 90 136
51 52 65
51 53 226
51 54 45
51 55 182
51 56 261
51 57 24
51 58 23
51 59 248
51 60 168
51 61 245
51 62 191
51 63 152
51 64 132
51 65 22
51 66 117
51 67 78
51 68 219
51 69 108
51 70 137
51 71 263
51 72 74
51 73 21
51 74 46
51 75 101
51 76 17
51 77 61
51 78 169
51 79 101
51 80 269
51 81 195
51 82 256
51 83 19
51 84 269
51 85 248
51 86 228
51 87 44
51 88 33
51 89 253
51 90 212
52 53 141
52 54 48
52 55 183
52 56 256
52 57 124
52 58 56
52 59 96
52 60 253
52 61 70
52 62 249
52 63 267
52 64 258
52 65 238
52 66 59
52 67 27
52 68 45
52 69 84
52 70 43
52 71 178
52 72 235
52 73 167
52 74 81
52 75 119
52 76 146
52 77 210
52 78 128
52 79 92
52 80 116
52 81 152
52 82 214
52 83 249
52 84 120
52 85 227
52 86 242
52 87 175
52 88 212
52 89 235
52 90 62
53 54 146
53 55 257
53 56 168
53 57 133
53 58 253
53 59 206
53 60 155
53 61 162
53 62 248
53 63 167
53 64 21
53 65 155
53 66 120
53 67 34
53 68 110
53 69 250
53 70 32
53 71 229
53 72 91
53 73 238
53 74 195
53 75 100
53 76 27
53 77 181
53 78 210
53 79 131
53 80 12
53 81 170
53 82 268
53 83 192
53 84 166
53 85 119
53 86 99
53 87 142
53 88 26
53 89 64
53 90 1
54 55 124
54 56 269
54 57 87
54 58 89
54 59 69
54 60 101
54 61 44
54 62 44
54 63 63
54 64 93
54 65 29
54 66 72
54 67 25
54 68 28
54 69 207
54 70 260
54 71 37
54 72 255
54 73 46
54 74 58
54 75 216
54 76 158
54 77 134
54 78 136
54 79 99
54 80 227
54 81 100
54 82 23
54 83 31
54 84 86
54 85 178
54 86 58
54 87 227
54 88 159
54 89 48
54 90 266
55 56 265
55 57 58
55 58 137
55 59 228
55 60 66
55 61 105
55 62 231
55 63 250
55 64 188
55 65 231
55 66 4
55 67 177
55 68 50
55 69 232
55 70 55
55 71 183
55 72 236
55 73 108
55 74 31
55 75 3
55 76 176
55 77 48
55 78 71
55 79 86
55 80 244
55 81 83
55 82 30
55 83 85
55 84 116
55 85 44
55 86 125
55 87 95
55 88 232
55 89 65
55 90 98
56 57 103
56 58 108
56 59 199
56 60 84
56 61 175
56 62 184
56 63 222
56 64 87
56 65 8
56 66 267
56 67 246
56 68 102
56 69 106
56 70 165
56 71 230
56 72 20
56 73 208
56 74 211
56 75 230
56 76 54
56 77 195
56 78 1
56 79 23
56 80 260
56 81 124
56 82 102
56 83 153
56 84 138
56 85 263
56 86 148
56 87 202
56 88 166
56 89 28
56 90 121
57 58 240
57 59 224
57 60 203
57 61 18
57 62 245
57 63 144
57 64 252
57 65 181
57 66 220
57 67 115
57 68 205
57 69 43
57 70 68
57 71 77
57 72 20
57 73 252
57 74 111
57 75 133
57 76 204
57 77 180
57 78 183
57 79 233
57 80 156
57 81 248
57 82 162
57 83 45
57 84 11
57 85 102
57 86 117
57 87 250
57 88 254
57 89 129
57 90 181
58 59 266
58 60 58
58 61 224
58 62 242
58 63 248
58 64 226
58 65 252
58 66 76
58 67 91
58 68 83
58 69 73
58 70 152
58 71 71
58 72 87
58 73 142
58 74 268
58 75 58
58 76 49
58 77 36
58 78 54
58 79 166
58 80 89
58 81 141
58 82 249
58 83 151
58 84 177
58 85 8
58 86 19
58 87 137
58 88 163
58 89 160
58 90 42
59 60 78
59 61 98
59 62 245
59 63 55
59 64 14
59 65 225
59 66 64
59 67 35
59 68 166
59 69 135
59 70 218
59 71 228
59 72 74
59 73 73
59 74 230
59 75 268
59 76 232
59 77 117
59 78 15
59 79 213
59 80 42
59 81 251
59 82 263
59 83 251
59 84 132
59 85 136
59 86 70
59 87 223
59 88 96
59 89 247
59 90 103
60 61 268
60 62 230
60 63 47
60 64 74
60 65 123
60 66 146
60 67 85
60 68 170
60 69 9
60 70 52
60 71 202
60 72 11
60 73 232
60 74 102
60 75 138
60 76 237
60 77 39
60 78 218
60 79 256
60 80 128
60 81 172
60 82 255
60 83 11
60 84 126
60 85 170
60 86 183
60 87 102
60 88 202
60 89 163
60 90 197
61 62 196
61 63 163
61 64 24
61 65 46
61 66 223
61 67 223
61 68 201
61 69 238
61 70 8
61 71 39
61 72 151
61 73 226
61 74 7
61 75 176
61 76 247
61 77 13
61 78 150
61 79 32
61 80 206
61 81 252
61 82 28
61 83 140
61 84 171
61 85 114
61 86 217
61 87 128
61 88 16
61 89 258
61 90 53
62 63 166
62 64 57
62 65 27
62 66 200
62 67 149
62 68 164
62 69 177
62 70 148
62 71 44
62 72 19
62 73 67
62 74 102
62 75 82
62 76 128
62 77 183
62 78 227
62 79 171
62 80 152
62 81 38
62 82 168
62 83 107
62 84 26
62 85 24
62 86 129
62 87 97
62 88 133
62 89 106
62 90 90
63 64 204
63 65 175
63 66 78
63 67 230
63 68 62
63 69 196
63 70 245
63 71 160
63 72 124
63 73 235
63 74 58
63 75 153
63 76 57
63 77 94
63 78 245
63 79 30
63 80 5
63 81 227
63 82 251
63 83 148
63 84 162
63 85 24
63 86 206
63 87 67
63 88 208
63 89 48
63 90 45
64 65 227
64 66 106
64 67 39
64 68 125
64 69 82
64 70 12
64 71 5
64 72 4
64 73 145
64 74 49
64 75 90
64 76 258
64 77 87
64 78 264
64 79 76
64 80 184
64 81 96
64 82 52
64 83 129
64 84 196
64 85 124
64 86 141
64 87 66
64 88 26
64 89 78
64 90 97
65 66 44
65 67 0
65 68 167
65 69 232
65 70 59
65 71 118
65 72 68
65 73 170
65 74 178
65 75 46
65 76 239
65 77 40
65 78 167
65 79 88
65 80 107
65 81 129
65 82 231
65 83 67
65 84 31
65 85 110
65 86 114
65 87 5
65 88 119
65 89 100
65 90 71
66 67 96
66 68 55
66 69 197
66 70 23
66 71 197
66 72 34
66 73 26
66 74 194
66 75 234
66 76 256
66 77 132
66 78 38
66 79 226
66 80 117
66 81 49
66 82 243
66 83 261
66 84 28
66 85 161
66 86 71
66 87 202
66 88 123
66 89 65
66 90 117
67 68 76
67 69 193
67 70 256
67 71 69
67 72 42
67 73 135
67 74 154
67 75 218
67 76 100
67 77 245
67 78 14
67 79 35
67 80 154
67 81 59
67 82 55
67 83 120
67 84 39
67 85 134
67 86 103
67 87 50
67 88 241
67 89 102
67 90 92
68 69 22
68 70 31
68 71 183
68 72 180
68 73 24
68 74 31
68 75 23
68 76 122
68 77 26
68 78 181
68 79 189
68 80 134
68 81 195
68 82 24
68 83 15
68 84 264
68 85 155
68 86 61
68 87 213
68 88 162
68 89 18
68 90 180
69 70 198
69 71 169
69 72 136
69 73 142
69 74 4
69 75 75
69 76 23
69 77 27
69 78 42
69 79 46
69 80 7
69 81 70
69 82 146
69 83 262
69 84 79
69 85 176
69 86 42
69 87 149
69 88 113
69 89 142
69 90 181
70 71 22
70 72 4
70 73 241
70 74 256
70 75 12
70 76 86
70 77 250
70 78 247
70 79 93
70 80 144
70 81 133
70 82 62
70 83 194
70 84 84
70 85 223
70 86 214
70 87 9
70 88 32
70 89 78
70 90 104
71 72 1
71 73 189
71 74 65
71 75 178
71 76 207
71 77 165
71 78 139
71 79 51
71 80 145
71 81 131
71 82 124
71 83 263
71 84 221
71 85 39
71 86 216
71 87 19
71 88 229
71 89 175
71 90 186
72 73 46
72 74 252
72 75 14
72 76 31
72 77 139
72 78 50
72 79 238
72 80 13
72 81 37
72 82 82
72 83 239
72 84 79
72 85 233
72 86 120
72 87 228
72 88 26
72 89 61
72 90 49
73 74 263
73 75 231
73 76 13
73 77 171
73 78 138
73 79 251
73 80 42
73 81 9
73 82 206
73 83 64
73 84 222
73 85 42
73 86 233
73 87 114
73 88 49
73 89 176
73 90 259
74 75 22
74 76 116
74 77 124
74 78 166
74 79 39
74 80 43
74 81 257
74 82 34
74 83 135
74 84 254
74 85 153
74 86 160
74 87 84
74 88 266
74 89 26
74 90 135
75 76 70
75 77 234
75 78 121
75 79 5
75 80 63
75 81 34
75 82 69
75 83 209
75 84 142
75 85 239
75 86 153
75 87 248
75 88 41
75 89 74
75 90 67
76 77 93
76 78 31
76 79 33
76 80 54
76 81 16
76 82 19
76 83 238
76 84 172
76 85 184
76 86 46
76 87 207
76 88 251
76 89 219
76 90 126
77 78 93
77 79 200
77 80 203
77 81 249
77 82 260
77 83 239
77 84 24
77 85 120
77 86 61
77 87 28
77 88 223
77 89 245
77 90 17
78 79 88
78 80 267
78 81 121
78 82 221
78 83 189
78 84 149
78 85 222
78 86 76
78 87 58
78 88 247
78 89 207
78 90 55
79 80 65
79 81 159
79 82 27
79 83 71
79 84 82
79 85 162
79 86 235
79 87 101
79 88 190
79 89 268
79 90 109
80 81 221
80 82 241
80 83 139
80 84 2
80 85 227
80 86 72
80 87 39
80 88 151
80 89 32
80 90 230
81 82 68
81 83 161
81 84 230
81 85 34
81 86 93
81 87 176
81 88 103
81 89 134
81 90 47
82 83 44
82 84 167
82 85 14
82 86 49
82 87 40
82 88 102
82 89 13
82 90 96
83 84 184
83 85 100
83 86 81
83 87 19
83 88 24
83 89 89
83 90 238
84 85 66
84 86 121
84 87 125
84 88 26
84 89 41
84 90 197
85 86 268
85 87 145
85 88 250
85 89 194
85 90 26
86 87 162
86 88 155
86 89 225
86 90 6
87 88 88
87 89 75
87 90 175
88 89 242
88 90 155
89 90 132
